sets/C/cp-n35-kk.vrp
NAME : (null)
COMMENT : (null)
TYPE : CVRP
DIMENSION : 35
EDGE_WEIGHT_TYPE : EUC_2D
CAPACITY : 64
NODE_COORD_SECTION
 1   9  34
 2   5  19
 3   0  18
 4  33  30
 5   4  28
 6  27   6
 7  11  27
 8  17   4
 9  28  25
10  12  18
11  21  33
12  29  19
13   9  10
14   1  18
15  14   4
16   9   2
17  14   5
18   4   4
19  12   6
20  18  27
21   2  17
22   5  20
23  25   2
24  34  16
25  21   2
26   4  10
27   7   7
28  20   0
29   7  23
30  33  19
31  18   2
32  29   7
33   5  12
34  31   2
35  14   3
DEMAND_SECTION
 1   0
 2  21
 3  24
 4   1
 5   5
 6  10
 7   9
 8   9
 9   8
10  24
11   2
12  24
13   9
14  14
15   9
16  17
17   8
18   5
19  20
20  15
21  17
22   1
23   6
24  20
25   8
26   8
27  13
28  14
29   3
30  24
31  22
32  14
33  19
34   5
35   7
DEPOT_SECTION
 1
-1
EOF