sets/C/cp-n35-kk.opt
Route #1: 19 9 6
Route #2: 20 2 13 4
Route #3: 26 17 15 16 18
Route #4: 28 12 25 32 1 21
Route #5: 14 34 30 27 7
Route #6: 10 3 29 11 8
Route #7: 24 22 33 5 31 23
cost 436
